
%FILE DATA:	Soccer Computational Problem for MiniZinc Models	%
%AUTHOR:	Jack Wall	%
%CONTACT:  	116397063@umail.ucc.ie			%
%LAST UPDATE:	01/29/2020, 10:17:59						%
%DESCRIPTION: 	36 games played with 20 games left				%

n=8; %number of teams

%Games to play
games=[|5,1|7,1|4,7|6,3|3,1|8,4|8,7|4,2|5,8|8,6|1,7|1,2|7,3|2,8|3,2|4,1|4,5|6,1|5,6|1,5|];

%Initial points
iPoints=[12,11,13,14,15,9,12,14];

%POSITION CONSTRAINTS
% [|teamID, operator, position|...]
% operators index:
%  1 for =  operator
%  2 for >  operator
%  3 for >= operator
%  4 for <  operator
%  5 for <= operator
positionConstraints=[|1,4,2|4,4,3|];